\ Model knapsack_80_10_3
\ LP format - for model browsing. Use MPS format to capture full model detail.
\ Signature: 0xf09d2bdcd6b73c12
Minimize
  - 425 y[0] - 914 y[1] - 218 y[2] - 1006 y[3] - 164 y[4] - 508 y[5]
   - 761 y[6] - 548 y[7] - 462 y[8] - 901 y[9] - 207 y[10] - 1041 y[11]
   - 391 y[12] - 1077 y[13] - 737 y[14] - 1091 y[15] - 695 y[16]
   - 130 y[17] - 776 y[18] - 450 y[19] - 941 y[20] - 923 y[21] - 681 y[22]
   - 531 y[23] - 382 y[24] - 399 y[25] - 258 y[26] - 1058 y[27] - 174 y[28]
   - 947 y[29] - 554 y[30] - 356 y[31] - 119 y[32] - 794 y[33] - 1046 y[34]
   - 378 y[35] - 835 y[36] - 878 y[37] - 444 y[38] - 833 y[39] - 327 y[40]
   - 525 y[41] - 101 y[42] - 807 y[43] - 990 y[44] - 944 y[45] - 1060 y[46]
   - 592 y[47] - 118 y[48] - 605 y[49] - 350 y[50] - 270 y[51] - 1052 y[52]
   - 188 y[53] - 693 y[54] - 639 y[55] - 247 y[56] - 270 y[57] - 613 y[58]
   - 448 y[59] - 387 y[60] - 977 y[61] - 249 y[62] - 960 y[63] - 533 y[64]
   - 592 y[65] - 227 y[66] - 103 y[67] - 758 y[68] - 567 y[69] - 615 y[70]
   - 269 y[71] - 870 y[72] - 141 y[73] - 762 y[74] - 623 y[75] - 182 y[76]
   - 538 y[77] - 300 y[78] - 867 y[79]
Subject To
 primal_upper: 325 y[0] + 814 y[1] + 118 y[2] + 906 y[3] + 64 y[4]
   + 408 y[5] + 661 y[6] + 448 y[7] + 362 y[8] + 801 y[9] + 107 y[10]
   + 941 y[11] + 291 y[12] + 977 y[13] + 637 y[14] + 991 y[15] + 595 y[16]
   + 30 y[17] + 676 y[18] + 350 y[19] + 841 y[20] + 823 y[21] + 581 y[22]
   + 431 y[23] + 282 y[24] + 299 y[25] + 158 y[26] + 958 y[27] + 74 y[28]
   + 847 y[29] + 454 y[30] + 256 y[31] + 19 y[32] + 694 y[33] + 946 y[34]
   + 278 y[35] + 735 y[36] + 778 y[37] + 344 y[38] + 733 y[39] + 227 y[40]
   + 425 y[41] + y[42] + 707 y[43] + 890 y[44] + 844 y[45] + 960 y[46]
   + 492 y[47] + 18 y[48] + 505 y[49] + 250 y[50] + 170 y[51] + 952 y[52]
   + 88 y[53] + 593 y[54] + 539 y[55] + 147 y[56] + 170 y[57] + 513 y[58]
   + 348 y[59] + 287 y[60] + 877 y[61] + 149 y[62] + 860 y[63] + 433 y[64]
   + 492 y[65] + 127 y[66] + 3 y[67] + 658 y[68] + 467 y[69] + 515 y[70]
   + 169 y[71] + 770 y[72] + 41 y[73] + 662 y[74] + 523 y[75] + 82 y[76]
   + 438 y[77] + 200 y[78] + 767 y[79] + 32 z[0] + 81 z[1] + 12 z[2]
   + 91 z[3] + 6 z[4] + 41 z[5] + 66 z[6] + 45 z[7] + 36 z[8] + 80 z[9]
   + 11 z[10] + 94 z[11] + 29 z[12] + 98 z[13] + 64 z[14] + 99 z[15]
   + 60 z[16] + 3 z[17] + 68 z[18] + 35 z[19] + 84 z[20] + 82 z[21]
   + 58 z[22] + 43 z[23] + 28 z[24] + 30 z[25] + 16 z[26] + 96 z[27]
   + 7 z[28] + 85 z[29] + 45 z[30] + 26 z[31] + 2 z[32] + 69 z[33]
   + 95 z[34] + 28 z[35] + 74 z[36] + 78 z[37] + 34 z[38] + 73 z[39]
   + 23 z[40] + 42 z[41] + 71 z[43] + 89 z[44] + 84 z[45] + 96 z[46]
   + 49 z[47] + 2 z[48] + 50 z[49] + 25 z[50] + 17 z[51] + 95 z[52]
   + 9 z[53] + 59 z[54] + 54 z[55] + 15 z[56] + 17 z[57] + 51 z[58]
   + 35 z[59] + 29 z[60] + 88 z[61] + 15 z[62] + 86 z[63] + 43 z[64]
   + 49 z[65] + 13 z[66] + 66 z[68] + 47 z[69] + 52 z[70] + 17 z[71]
   + 77 z[72] + 4 z[73] + 66 z[74] + 52 z[75] + 8 z[76] + 44 z[77]
   + 20 z[78] + 77 z[79] <= 9598
 primal_lower0: - 6 y[0] - 7 y[2] - y[3] - y[4] - 9 y[5] - 6 y[6] - 5 y[7]
   - 7 y[8] - 6 y[9] - 4 y[10] - y[11] - 10 y[12] - y[13] - 10 y[14]
   - 6 y[15] - 6 y[16] - 10 y[17] - y[18] - 3 y[19] - 10 y[20] - 12 y[21]
   - 11 y[22] - 3 y[23] - 5 y[24] - 4 y[25] - 10 y[26] - 4 y[27] - 4 y[28]
   - 7 y[30] - 2 y[32] - 10 y[33] - y[35] - 7 y[36] - 12 y[37] - 6 y[38]
   - 6 y[39] - y[40] - 6 y[41] - 3 y[42] - 8 y[43] - 12 y[44] - 7 y[45]
   - 3 y[46] - y[47] - 6 y[48] - 2 y[49] - 3 y[50] - y[51] - 11 y[52]
   - 5 y[53] - 8 y[54] - 2 y[55] - 2 y[56] - 3 y[57] - 2 y[58] - 4 y[59]
   - 12 y[60] - 3 y[61] - 12 y[62] - 11 y[63] - 7 y[64] - y[65] - 10 y[66]
   - 9 y[67] - 10 y[68] - 7 y[69] - 6 y[71] - 4 y[72] - 4 y[73] - 7 y[74]
   - 10 y[75] - 3 y[76] - 6 y[77] - 10 y[78] - 5 y[79] + 602 u[0]
   + 711 u[1] + 195 u[2] + 603 u[3] + 181 u[4] + 833 u[5] + 450 u[6]
   + 593 u[7] + 575 u[8] + 882 u[9] + 208 u[10] + 726 u[11] + 464 u[12]
   + 946 u[13] + 730 u[14] + 984 u[15] + 320 u[16] + 639 u[17] + 89 u[18]
   + 23 u[19] + 174 u[20] + 632 u[21] + 394 u[22] + 200 u[23] + 415 u[24]
   + 452 u[25] + 403 u[26] + 31 u[27] + 399 u[28] + 576 u[29] + 843 u[30]
   + 9 u[31] + 64 u[32] + 967 u[33] + 487 u[34] + 799 u[35] + 28 u[36]
   + 499 u[37] + 653 u[38] + 598 u[39] + 320 u[40] + 866 u[41] + 502 u[42]
   + 356 u[43] + 295 u[44] + 373 u[45] + 645 u[46] + 549 u[47] + 887 u[48]
   + 386 u[49] + 679 u[50] + 339 u[51] + 877 u[52] + 457 u[53] + 854 u[54]
   + 564 u[55] + 664 u[56] + 723 u[57] + 462 u[58] + 333 u[59] + 524 u[60]
   + 686 u[61] + 962 u[62] + 413 u[63] + 654 u[64] + 229 u[65] + 876 u[66]
   + 444 u[67] + 311 u[68] + 916 u[69] + 424 u[70] + 770 u[71] + 175 u[72]
   + 794 u[73] + 355 u[74] + 700 u[75] + 959 u[76] + 735 u[77] + 509 u[78]
   + 224 u[79] <= 984
 primal_lower1: - 63 y[0] - 97 y[1] - 100 y[2] - 67 y[3] - 81 y[4]
   - 36 y[5] - 105 y[6] - 112 y[7] - 58 y[8] - 80 y[9] - 34 y[10]
   - 93 y[11] - 48 y[12] - 44 y[13] - 89 y[14] - 75 y[15] - 108 y[16]
   - 85 y[17] - 76 y[18] - 79 y[19] - 33 y[20] - 53 y[21] - 102 y[22]
   - 55 y[23] - 4 y[24] - 74 y[25] - 36 y[26] - 110 y[27] - 45 y[28]
   - 103 y[29] - 111 y[30] - 102 y[32] - 38 y[33] - 56 y[34] - 38 y[35]
   - 108 y[36] - 103 y[37] - 40 y[38] - 22 y[39] - 26 y[40] - 98 y[41]
   - 110 y[42] - 88 y[43] - 12 y[44] - 2 y[45] - 117 y[46] - 103 y[47]
   - 70 y[48] - 121 y[49] - 36 y[50] - 19 y[51] - 104 y[52] - 4 y[53]
   - 49 y[54] - 60 y[55] - 123 y[56] - 2 y[57] - 61 y[58] - 4 y[59]
   - 64 y[60] - 73 y[61] - 9 y[62] - 109 y[63] - 120 y[64] - 3 y[65]
   - 111 y[66] - 107 y[67] - 67 y[68] - 5 y[69] - 25 y[70] - 26 y[71]
   - 109 y[72] - 123 y[73] - 62 y[74] - 5 y[75] - 30 y[76] - 12 y[77]
   - 111 y[78] - 56 y[79] + 504 u[0] + 622 u[1] + 524 u[2] + 463 u[3]
   + 618 u[4] + 736 u[5] + 699 u[6] + 268 u[7] + 252 u[8] + 562 u[9]
   + 794 u[10] + 769 u[11] + 485 u[12] + 658 u[13] + 12 u[14] + 252 u[15]
   + 261 u[16] + 103 u[17] + 250 u[18] + 827 u[19] + 676 u[20] + 903 u[21]
   + 699 u[22] + 659 u[23] + 508 u[24] + 443 u[25] + 76 u[26] + 650 u[27]
   + 13 u[28] + 895 u[29] + 533 u[30] + 36 u[31] + 901 u[32] + 678 u[33]
   + 616 u[34] + 106 u[35] + 681 u[36] + 915 u[37] + 990 u[38] + 274 u[39]
   + 189 u[40] + 602 u[41] + 296 u[42] + 543 u[43] + 684 u[44] + 700 u[45]
   + 463 u[46] + 64 u[47] + 277 u[48] + 17 u[49] + 792 u[50] + 767 u[51]
   + 490 u[52] + 680 u[53] + 160 u[54] + 664 u[55] + 398 u[56] + 458 u[57]
   + 167 u[58] + 841 u[59] + 402 u[60] + 717 u[61] + 60 u[62] + 280 u[63]
   + 172 u[64] + 788 u[65] + 909 u[66] + 991 u[67] + 732 u[68] + 452 u[69]
   + 193 u[70] + 837 u[71] + 100 u[72] + 449 u[73] + 469 u[74] + 527 u[75]
   + 540 u[76] + 871 u[77] + 887 u[78] + 748 u[79] <= 10321
 primal_lower2: - 5 y[0] - 74 y[1] - 39 y[2] - 70 y[3] - 56 y[4] - 49 y[5]
   - 52 y[6] - 7 y[7] - 7 y[8] - 8 y[9] - 21 y[10] - 75 y[11] - 8 y[12]
   - 99 y[13] - 30 y[15] - 96 y[16] - 45 y[17] - 33 y[18] - 22 y[19]
   - 67 y[20] - 102 y[21] - 68 y[22] - 67 y[23] - 83 y[24] - 73 y[25]
   - 35 y[26] - 94 y[27] - 39 y[28] - 109 y[29] - 34 y[30] - 102 y[32]
   - 43 y[33] - 103 y[34] - 67 y[35] - 54 y[36] - 99 y[37] - 44 y[38]
   - 98 y[39] - 55 y[40] - 18 y[41] - 58 y[42] - 71 y[43] - 28 y[44]
   - 43 y[45] - 78 y[46] - 44 y[47] - 17 y[48] - 97 y[49] - 39 y[50]
   - 88 y[51] - 38 y[52] - 65 y[53] - 13 y[54] - 100 y[55] - 97 y[56]
   - 89 y[57] - 90 y[58] - 19 y[59] - 30 y[60] - 11 y[61] - 99 y[62]
   - 49 y[63] - 81 y[64] - 78 y[66] - 65 y[67] - 13 y[68] - 7 y[69]
   - 48 y[70] - 41 y[71] - 8 y[72] - 39 y[73] - 19 y[74] - 60 y[75]
   - 33 y[76] - 88 y[77] - 70 y[78] - 69 y[79] + 969 u[0] + 155 u[1]
   + 989 u[2] + 812 u[3] + 43 u[4] + 989 u[5] + 468 u[6] + 881 u[7]
   + 85 u[8] + 735 u[9] + 547 u[10] + 350 u[11] + 718 u[12] + 351 u[13]
   + 277 u[14] + 377 u[15] + 230 u[16] + 300 u[17] + 795 u[18] + 280 u[19]
   + 109 u[20] + 188 u[21] + 716 u[22] + 176 u[23] + 413 u[24] + 144 u[25]
   + 325 u[26] + 183 u[27] + 198 u[28] + 780 u[29] + 806 u[30] + 233 u[31]
   + 102 u[32] + 475 u[33] + 129 u[34] + 303 u[35] + 130 u[36] + 144 u[37]
   + 167 u[38] + 687 u[39] + 350 u[40] + 495 u[41] + 73 u[42] + 388 u[43]
   + 725 u[44] + 361 u[45] + 136 u[46] + 389 u[47] + 854 u[48] + 102 u[49]
   + 609 u[50] + 308 u[51] + 403 u[52] + 797 u[53] + 721 u[54] + 93 u[55]
   + 911 u[56] + 231 u[57] + 160 u[58] + 366 u[59] + 619 u[60] + 122 u[61]
   + 997 u[62] + 109 u[63] + 805 u[64] + 705 u[65] + 798 u[66] + 964 u[67]
   + 933 u[68] + 369 u[69] + 698 u[70] + 2 u[71] + 453 u[72] + 230 u[73]
   + 654 u[74] + 44 u[75] + 285 u[76] + 684 u[77] + 96 u[78] + 417 u[79]
   <= 8803
 primal_lower3: - 88 y[0] - 146 y[1] - 253 y[2] - 112 y[3] - 225 y[4]
   - 236 y[5] - 15 y[6] - 157 y[7] - 135 y[8] - 112 y[9] - 198 y[10]
   - 195 y[11] - 212 y[12] - 88 y[13] - 250 y[14] - 231 y[15] - 221 y[16]
   - 77 y[17] - 40 y[18] - 200 y[19] - 117 y[20] - 229 y[21] - 137 y[22]
   - 176 y[23] - 18 y[24] - 115 y[25] - 183 y[26] - 188 y[27] - 93 y[28]
   - 190 y[29] - 197 y[30] - 146 y[31] - 201 y[32] - 82 y[33] - 242 y[34]
   - 17 y[35] - 238 y[36] - 54 y[37] - 102 y[38] - 113 y[39] - 18 y[40]
   - 87 y[41] - 156 y[42] - 205 y[43] - 125 y[44] - 26 y[45] - 189 y[46]
   - 46 y[47] - 72 y[48] - 258 y[49] - 62 y[50] - 145 y[51] - 252 y[52]
   - 145 y[53] - 59 y[54] - 228 y[55] - 124 y[56] - 151 y[57] - 176 y[58]
   - 180 y[59] - 180 y[60] - 214 y[61] - 168 y[62] - 137 y[63] - 202 y[64]
   - 132 y[65] - 228 y[66] - 216 y[67] - 169 y[68] - 233 y[69] - 204 y[70]
   - 134 y[71] - 98 y[72] - 6 y[73] - 231 y[74] - 242 y[75] - 153 y[76]
   - 18 y[77] - 83 y[78] - 202 y[79] + 556 u[0] + 410 u[1] + 64 u[2]
   + 451 u[3] + 998 u[4] + 988 u[5] + 391 u[6] + 304 u[7] + 800 u[8]
   + 94 u[9] + 326 u[10] + 485 u[11] + 57 u[12] + 430 u[13] + 808 u[14]
   + 368 u[15] + 129 u[16] + 483 u[17] + 142 u[18] + 767 u[19] + 136 u[20]
   + 771 u[21] + 895 u[22] + 239 u[23] + 776 u[24] + 639 u[25] + 80 u[26]
   + 910 u[27] + 273 u[28] + 315 u[29] + 345 u[30] + 952 u[31] + 321 u[32]
   + 978 u[33] + 236 u[34] + 454 u[35] + 789 u[36] + 927 u[37] + 698 u[38]
   + 478 u[39] + 121 u[40] + 614 u[41] + 172 u[42] + 931 u[43] + 488 u[44]
   + 976 u[45] + 531 u[46] + 404 u[47] + 673 u[48] + 973 u[49] + 916 u[50]
   + 931 u[51] + 742 u[52] + 276 u[53] + 532 u[54] + 972 u[55] + 298 u[56]
   + 270 u[57] + 739 u[58] + 997 u[59] + 62 u[60] + 833 u[61] + 408 u[62]
   + 612 u[63] + 480 u[64] + 304 u[65] + 113 u[66] + 459 u[67] + 136 u[68]
   + 504 u[69] + 141 u[70] + 321 u[71] + 528 u[72] + 221 u[73] + 697 u[74]
   + 699 u[75] + 472 u[76] + 619 u[77] + 531 u[78] + 480 u[79] <= 20719
 primal_lower4: - 131 y[0] - 19 y[1] - 10 y[2] - 39 y[3] - 83 y[4]
   - 115 y[5] - 176 y[6] - 4 y[7] - 207 y[8] - 69 y[9] - 167 y[10]
   - 135 y[11] - 88 y[12] - 55 y[13] - 159 y[14] - 214 y[15] - 77 y[16]
   - 220 y[17] - 218 y[18] - 109 y[19] - 145 y[20] - 148 y[21] - 11 y[22]
   - 142 y[23] - 115 y[24] - 200 y[25] - 19 y[26] - 140 y[27] - 214 y[28]
   - 217 y[29] - 27 y[30] - 207 y[31] - 66 y[32] - 213 y[33] - 173 y[34]
   - 105 y[35] - 88 y[36] - 132 y[37] - 44 y[38] - 30 y[39] - 45 y[40]
   - 32 y[41] - 89 y[42] - 51 y[43] - 216 y[44] - 42 y[45] - 54 y[46]
   - 2 y[47] - 27 y[48] - 112 y[49] - 134 y[50] - 103 y[51] - 172 y[52]
   - 139 y[53] - 24 y[54] - 22 y[55] - 128 y[56] - 210 y[57] - 38 y[58]
   - 22 y[59] - 106 y[60] - 159 y[61] - 105 y[62] - 221 y[63] - 193 y[64]
   - 117 y[65] - 23 y[66] - 142 y[67] - 108 y[68] - 217 y[69] - 193 y[70]
   - 20 y[71] - 160 y[72] - 40 y[73] - 190 y[74] - 24 y[75] - 214 y[76]
   - 206 y[77] - 39 y[78] - 55 y[79] + 735 u[0] + 849 u[1] + 195 u[2]
   + 98 u[3] + 281 u[4] + 451 u[5] + 650 u[6] + 711 u[7] + 771 u[8]
   + 165 u[9] + 745 u[10] + 604 u[11] + 260 u[12] + 157 u[13] + 675 u[14]
   + 71 u[15] + 228 u[16] + 706 u[17] + 465 u[18] + 678 u[19] + 67 u[20]
   + 658 u[21] + 26 u[22] + 550 u[23] + 107 u[24] + 662 u[25] + 251 u[26]
   + 829 u[27] + 540 u[28] + 266 u[29] + 372 u[30] + 55 u[31] + 412 u[32]
   + 401 u[33] + 767 u[34] + 637 u[35] + 992 u[36] + 758 u[37] + 221 u[38]
   + 37 u[39] + 684 u[40] + 373 u[41] + 135 u[42] + 226 u[43] + 899 u[44]
   + 79 u[45] + 86 u[46] + 475 u[47] + 716 u[48] + 44 u[49] + 351 u[50]
   + 58 u[51] + 993 u[52] + 323 u[53] + 391 u[54] + 771 u[55] + 357 u[56]
   + 709 u[57] + 126 u[58] + 612 u[59] + 569 u[60] + 336 u[61] + 779 u[62]
   + 59 u[63] + 971 u[64] + 199 u[65] + 892 u[66] + 194 u[67] + 435 u[68]
   + 47 u[69] + 952 u[70] + 200 u[71] + 867 u[72] + 108 u[73] + 292 u[74]
   + 66 u[75] + 971 u[76] + 578 u[77] + 222 u[78] + 551 u[79] <= 17899
 primal_lower5: - 76 y[0] - 55 y[1] - 19 y[2] - 48 y[3] - 90 y[4] - 15 y[5]
   - 86 y[7] - 45 y[8] - 6 y[9] - 3 y[10] - 33 y[11] - y[12] - 99 y[13]
   - 72 y[14] - 71 y[15] - 35 y[16] - 8 y[17] - 85 y[18] - 18 y[19]
   - 85 y[20] - 9 y[21] - 75 y[22] - 86 y[23] - 77 y[24] - 59 y[25]
   - 91 y[26] - 62 y[27] - 60 y[28] - 90 y[29] - 63 y[30] - 8 y[31]
   - 23 y[32] - 18 y[33] - 102 y[34] - 48 y[35] - 24 y[36] - 53 y[37]
   - 59 y[38] - 26 y[39] - 102 y[40] - y[41] - 83 y[42] - 29 y[43]
   - 68 y[44] - 74 y[45] - 11 y[46] - 37 y[47] - 33 y[48] - 92 y[49]
   - 105 y[50] - 112 y[51] - 95 y[52] - 49 y[53] - 11 y[54] - 109 y[55]
   - 65 y[56] - 85 y[57] - 29 y[58] - 42 y[60] - 22 y[61] - 29 y[62]
   - 45 y[63] - 55 y[64] - 105 y[65] - 13 y[66] - 106 y[67] - 78 y[68]
   - 26 y[69] - 71 y[70] - 52 y[71] - 38 y[72] - 65 y[73] - 19 y[74]
   - 36 y[75] - 22 y[76] - 18 y[77] - 45 y[78] - 10 y[79] + 606 u[0]
   + 739 u[1] + 63 u[2] + 303 u[3] + 513 u[4] + 29 u[5] + 590 u[6]
   + 325 u[7] + 107 u[8] + 182 u[9] + 732 u[10] + 610 u[11] + 996 u[12]
   + 190 u[13] + 550 u[14] + 300 u[15] + 580 u[16] + 827 u[17] + 789 u[18]
   + 843 u[19] + 658 u[20] + 820 u[21] + 382 u[22] + 260 u[23] + 691 u[24]
   + 632 u[25] + 103 u[26] + 187 u[27] + 427 u[28] + 604 u[29] + 727 u[30]
   + 621 u[31] + 460 u[32] + 179 u[33] + 555 u[34] + 619 u[35] + 560 u[36]
   + 463 u[37] + u[38] + 410 u[39] + 508 u[40] + 854 u[41] + 826 u[42]
   + 96 u[43] + 35 u[44] + 489 u[45] + 65 u[46] + 169 u[47] + 251 u[48]
   + 622 u[49] + 283 u[50] + 175 u[51] + 65 u[52] + 989 u[53] + 482 u[54]
   + 344 u[55] + 692 u[56] + 391 u[57] + 34 u[58] + 569 u[59] + 400 u[60]
   + 162 u[61] + 502 u[62] + 49 u[63] + 538 u[64] + 65 u[65] + 568 u[66]
   + 992 u[67] + 899 u[68] + 512 u[69] + 516 u[70] + 334 u[71] + 827 u[72]
   + 14 u[73] + 535 u[74] + 680 u[75] + 291 u[76] + 467 u[77] + 529 u[78]
   + 316 u[79] <= 9092
 primal_lower6: - 33 y[0] - 198 y[1] - 63 y[2] - 92 y[3] - 126 y[4]
   - 199 y[5] - 179 y[6] - 184 y[7] - 9 y[8] - 60 y[9] - 15 y[10]
   - 125 y[11] - 143 y[12] - 104 y[13] - 3 y[14] - 68 y[15] - 131 y[16]
   - 153 y[17] - 153 y[18] - 151 y[19] - 182 y[20] - 84 y[21] - 43 y[22]
   - 161 y[23] - 146 y[24] - 36 y[25] - 89 y[26] - 47 y[27] - 41 y[28]
   - 119 y[29] - 29 y[30] - 141 y[31] - 99 y[32] - 102 y[33] - 25 y[34]
   - 72 y[35] - 192 y[36] - 20 y[37] - 181 y[38] - 178 y[39] - 153 y[40]
   - 69 y[41] - 144 y[42] - 88 y[43] - 156 y[44] - 44 y[45] - 65 y[46]
   - 146 y[47] - 67 y[48] - 60 y[49] - 95 y[50] - 189 y[51] - 21 y[52]
   - 47 y[53] - 188 y[54] - 137 y[55] - 15 y[56] - 46 y[57] - 107 y[58]
   - 103 y[59] - 47 y[60] - 173 y[61] - 201 y[62] - 150 y[63] - 93 y[64]
   - 191 y[65] - 140 y[66] - 67 y[67] - 107 y[68] - 157 y[69] - 61 y[70]
   - 103 y[71] - 176 y[72] - 139 y[73] - 172 y[74] - 120 y[75] - 165 y[76]
   - 50 y[77] - 140 y[78] - 161 y[79] + 626 u[0] + 431 u[1] + 323 u[2]
   + 347 u[3] + 165 u[4] + 97 u[5] + 498 u[6] + 393 u[7] + 71 u[8]
   + 746 u[9] + 448 u[10] + 654 u[11] + 432 u[12] + 850 u[13] + 98 u[14]
   + 648 u[15] + 600 u[16] + 111 u[17] + 185 u[18] + 367 u[19] + 950 u[20]
   + 576 u[21] + 354 u[22] + 448 u[23] + 743 u[24] + 316 u[25] + 843 u[26]
   + 335 u[27] + 319 u[28] + 184 u[29] + 163 u[30] + 41 u[31] + 40 u[32]
   + 247 u[33] + 719 u[34] + 471 u[35] + 484 u[36] + 19 u[37] + 501 u[38]
   + 526 u[39] + 8 u[40] + 18 u[41] + 398 u[42] + 468 u[43] + 23 u[44]
   + 61 u[45] + 317 u[46] + 77 u[47] + 575 u[48] + 258 u[49] + 55 u[50]
   + 843 u[51] + 541 u[52] + 25 u[53] + 566 u[54] + 68 u[55] + 88 u[56]
   + 755 u[57] + 174 u[58] + 5 u[59] + 708 u[60] + 982 u[61] + 802 u[62]
   + 773 u[63] + 326 u[64] + 677 u[65] + 228 u[66] + 36 u[67] + 335 u[68]
   + 972 u[69] + 776 u[70] + 810 u[71] + 903 u[72] + 98 u[73] + 683 u[74]
   + 268 u[75] + 375 u[76] + 111 u[77] + 69 u[78] + 872 u[79] <= 16248
 primal_lower7: - 7 y[0] - 5 y[1] - 6 y[2] - 12 y[4] - 10 y[5] - 5 y[6]
   - 10 y[7] - 6 y[8] - 2 y[9] - 6 y[10] - 7 y[11] - 7 y[12] - 10 y[13]
   - 2 y[14] - 3 y[16] - 8 y[17] - 10 y[18] - y[19] - 11 y[20] - 2 y[21]
   - 11 y[22] - 6 y[23] - 4 y[24] - 5 y[25] - 2 y[26] - 3 y[27] - 11 y[29]
   - 10 y[30] - 5 y[31] - 7 y[32] - 8 y[33] - 8 y[34] - 8 y[35] - 10 y[36]
   - 12 y[37] - 9 y[39] - 9 y[40] - 6 y[41] - 8 y[42] - 8 y[43] - 7 y[44]
   - 3 y[45] - 9 y[46] - y[47] - 5 y[48] - 4 y[50] - 9 y[51] - 11 y[52]
   - 4 y[53] - 6 y[54] - 2 y[57] - 2 y[59] - 9 y[60] - 3 y[62] - 11 y[63]
   - 2 y[64] - 3 y[65] - 10 y[66] - 6 y[67] - 11 y[68] - 10 y[69] - 8 y[71]
   - 12 y[72] - 5 y[73] - 10 y[74] - 3 y[75] - 2 y[76] - 4 y[77] - 6 y[78]
   - 2 y[79] + 753 u[0] + 107 u[1] + 333 u[2] + 356 u[3] + 483 u[4]
   + 869 u[5] + 172 u[6] + 129 u[7] + 301 u[8] + 959 u[9] + 27 u[10]
   + 694 u[11] + 494 u[12] + 847 u[13] + 981 u[14] + 49 u[15] + 574 u[16]
   + 4 u[17] + 195 u[18] + 320 u[19] + 741 u[20] + 916 u[21] + 244 u[22]
   + 680 u[23] + 445 u[24] + 704 u[25] + 989 u[26] + 543 u[27] + 734 u[28]
   + 388 u[29] + 942 u[30] + 993 u[31] + 342 u[32] + 683 u[33] + 89 u[34]
   + 887 u[35] + 666 u[36] + 728 u[37] + 455 u[38] + 671 u[39] + 934 u[40]
   + 39 u[41] + 169 u[42] + 100 u[43] + 5 u[44] + 545 u[45] + 808 u[46]
   + 973 u[47] + 174 u[48] + 318 u[49] + 353 u[50] + 636 u[51] + 923 u[52]
   + 453 u[53] + 961 u[54] + 293 u[55] + 223 u[56] + 831 u[57] + 616 u[58]
   + 974 u[59] + 35 u[60] + 706 u[61] + 285 u[62] + 229 u[63] + 829 u[64]
   + 201 u[65] + 198 u[66] + 932 u[67] + 437 u[68] + 873 u[69] + 802 u[70]
   + 426 u[71] + 605 u[72] + 38 u[73] + 510 u[74] + 740 u[75] + 501 u[76]
   + 484 u[77] + 640 u[78] + 433 u[79] <= 993
 primal_lower8: - 195 y[0] - 104 y[1] - 80 y[2] - 93 y[3] - 205 y[4]
   - 148 y[5] - 21 y[6] - 91 y[7] - 82 y[8] - 103 y[9] - 62 y[10]
   - 166 y[11] - 99 y[12] - 208 y[13] - 142 y[14] - 171 y[15] - 83 y[16]
   - 70 y[17] - 63 y[18] - 53 y[19] - 108 y[20] - 158 y[21] - 113 y[22]
   - 231 y[23] - 216 y[24] - 73 y[25] - 38 y[26] - 218 y[27] - 23 y[28]
   - 188 y[29] - 2 y[30] - 46 y[31] - 86 y[32] - 92 y[33] - 46 y[34]
   - 174 y[35] - 151 y[36] - 134 y[37] - 211 y[38] - 214 y[39] - 27 y[40]
   - 207 y[41] - 136 y[42] - 211 y[43] - 183 y[44] - 16 y[45] - 170 y[46]
   - 68 y[47] - 126 y[48] - 209 y[49] - 85 y[50] - 125 y[51] - 224 y[52]
   - 117 y[53] - 191 y[54] - 81 y[55] - 103 y[56] - 28 y[57] - 92 y[58]
   - 19 y[59] - 112 y[60] - 142 y[61] - 224 y[62] - 154 y[63] - 64 y[64]
   - 27 y[65] - 220 y[66] - 48 y[67] - 4 y[68] - 42 y[69] - 29 y[70]
   - 179 y[71] - 54 y[72] - 147 y[73] - 134 y[74] - 8 y[75] - 155 y[76]
   - 222 y[77] - 36 y[78] - 53 y[79] + 101 u[0] + 31 u[1] + 369 u[2]
   + 344 u[3] + 855 u[4] + 745 u[5] + 376 u[6] + 421 u[7] + 401 u[8]
   + 427 u[9] + 207 u[10] + 722 u[11] + 714 u[12] + 195 u[13] + 649 u[14]
   + 845 u[15] + 114 u[16] + 376 u[17] + 575 u[18] + 44 u[19] + 265 u[20]
   + 552 u[21] + 344 u[22] + 60 u[23] + 753 u[24] + 924 u[25] + 649 u[26]
   + 131 u[27] + 298 u[28] + 48 u[29] + 266 u[30] + 773 u[31] + 106 u[32]
   + 863 u[33] + 821 u[34] + 115 u[35] + 294 u[36] + 492 u[37] + 627 u[38]
   + 763 u[39] + 954 u[40] + 795 u[41] + 765 u[42] + 432 u[43] + 929 u[44]
   + 229 u[45] + 300 u[46] + 441 u[47] + 114 u[48] + 218 u[49] + 245 u[50]
   + 688 u[51] + 263 u[52] + 801 u[53] + 53 u[54] + 137 u[55] + 971 u[56]
   + 19 u[57] + 796 u[58] + 298 u[59] + 535 u[60] + 678 u[61] + 193 u[62]
   + 593 u[63] + 337 u[64] + 613 u[65] + 994 u[66] + 864 u[67] + 393 u[68]
   + 45 u[69] + 158 u[70] + 942 u[71] + 449 u[72] + 514 u[73] + 530 u[74]
   + 672 u[75] + 57 u[76] + 360 u[77] + 860 u[78] + 685 u[79] <= 18787
 primal_lower9: - 138 y[0] - 149 y[1] - 234 y[2] - 238 y[3] - 222 y[4]
   - 176 y[5] - 104 y[6] - 219 y[7] - 164 y[8] - 179 y[9] - 27 y[10]
   - 205 y[11] - 21 y[12] - 106 y[13] - 45 y[14] - 133 y[15] - 208 y[16]
   - 163 y[17] - 126 y[18] - 192 y[19] - 235 y[20] - 193 y[21] - 89 y[22]
   - 228 y[23] - 127 y[24] - 126 y[25] - 78 y[26] - 190 y[27] - 77 y[28]
   - 150 y[29] - 204 y[30] - 188 y[31] - 138 y[32] - 42 y[33] - 32 y[34]
   - 113 y[35] - 173 y[36] - 127 y[37] - 60 y[38] - 228 y[39] - 195 y[40]
   - 30 y[41] - 168 y[42] - 74 y[43] - 135 y[44] - 91 y[45] - 231 y[46]
   - 119 y[47] - 191 y[48] - 140 y[49] - 185 y[50] - 148 y[51] - 217 y[52]
   - 158 y[53] - 152 y[54] - 228 y[55] - 138 y[56] - 60 y[57] - 37 y[58]
   - 146 y[59] - y[60] - 84 y[61] - 129 y[62] - 97 y[63] - 197 y[64]
   - 241 y[65] - 69 y[66] - 176 y[67] - 183 y[68] - 47 y[69] - 145 y[70]
   - 196 y[71] - 12 y[72] - 175 y[73] - 151 y[74] - 116 y[75] - 147 y[76]
   - 196 y[77] - 93 y[78] - 78 y[79] + 824 u[0] + 285 u[1] + 561 u[2]
   + 793 u[3] + 83 u[4] + 439 u[5] + 768 u[6] + 895 u[7] + 45 u[8]
   + 288 u[9] + 974 u[10] + 636 u[11] + 262 u[12] + 16 u[13] + 448 u[14]
   + 22 u[15] + 70 u[16] + 477 u[17] + 367 u[18] + 285 u[19] + 340 u[20]
   + 942 u[21] + 248 u[22] + 398 u[23] + 861 u[24] + 522 u[25] + 169 u[26]
   + 941 u[27] + 301 u[28] + 582 u[29] + 801 u[30] + 543 u[31] + 966 u[32]
   + 253 u[33] + 965 u[34] + 125 u[35] + 362 u[36] + 609 u[37] + 347 u[38]
   + 820 u[39] + 710 u[40] + 344 u[41] + 132 u[42] + 850 u[43] + 597 u[44]
   + 651 u[45] + 987 u[46] + 683 u[47] + 589 u[48] + 864 u[49] + 333 u[50]
   + 577 u[51] + 299 u[52] + 791 u[53] + 12 u[54] + 754 u[55] + 102 u[56]
   + 401 u[57] + 940 u[58] + 587 u[59] + 2 u[60] + 548 u[61] + 392 u[62]
   + 563 u[63] + 68 u[64] + 523 u[65] + 234 u[66] + 410 u[67] + 373 u[68]
   + 154 u[69] + 838 u[70] + 272 u[71] + 421 u[72] + 752 u[73] + 193 u[74]
   + 122 u[75] + 485 u[76] + 829 u[77] + 155 u[78] + 542 u[79] <= 19356
 mccormick1[0]: - u[0] + z[0] <= 0
 mccormick1[1]: - u[1] + z[1] <= 0
 mccormick1[2]: - u[2] + z[2] <= 0
 mccormick1[3]: - u[3] + z[3] <= 0
 mccormick1[4]: - u[4] + z[4] <= 0
 mccormick1[5]: - u[5] + z[5] <= 0
 mccormick1[6]: - u[6] + z[6] <= 0
 mccormick1[7]: - u[7] + z[7] <= 0
 mccormick1[8]: - u[8] + z[8] <= 0
 mccormick1[9]: - u[9] + z[9] <= 0
 mccormick1[10]: - u[10] + z[10] <= 0
 mccormick1[11]: - u[11] + z[11] <= 0
 mccormick1[12]: - u[12] + z[12] <= 0
 mccormick1[13]: - u[13] + z[13] <= 0
 mccormick1[14]: - u[14] + z[14] <= 0
 mccormick1[15]: - u[15] + z[15] <= 0
 mccormick1[16]: - u[16] + z[16] <= 0
 mccormick1[17]: - u[17] + z[17] <= 0
 mccormick1[18]: - u[18] + z[18] <= 0
 mccormick1[19]: - u[19] + z[19] <= 0
 mccormick1[20]: - u[20] + z[20] <= 0
 mccormick1[21]: - u[21] + z[21] <= 0
 mccormick1[22]: - u[22] + z[22] <= 0
 mccormick1[23]: - u[23] + z[23] <= 0
 mccormick1[24]: - u[24] + z[24] <= 0
 mccormick1[25]: - u[25] + z[25] <= 0
 mccormick1[26]: - u[26] + z[26] <= 0
 mccormick1[27]: - u[27] + z[27] <= 0
 mccormick1[28]: - u[28] + z[28] <= 0
 mccormick1[29]: - u[29] + z[29] <= 0
 mccormick1[30]: - u[30] + z[30] <= 0
 mccormick1[31]: - u[31] + z[31] <= 0
 mccormick1[32]: - u[32] + z[32] <= 0
 mccormick1[33]: - u[33] + z[33] <= 0
 mccormick1[34]: - u[34] + z[34] <= 0
 mccormick1[35]: - u[35] + z[35] <= 0
 mccormick1[36]: - u[36] + z[36] <= 0
 mccormick1[37]: - u[37] + z[37] <= 0
 mccormick1[38]: - u[38] + z[38] <= 0
 mccormick1[39]: - u[39] + z[39] <= 0
 mccormick1[40]: - u[40] + z[40] <= 0
 mccormick1[41]: - u[41] + z[41] <= 0
 mccormick1[42]: - u[42] + z[42] <= 0
 mccormick1[43]: - u[43] + z[43] <= 0
 mccormick1[44]: - u[44] + z[44] <= 0
 mccormick1[45]: - u[45] + z[45] <= 0
 mccormick1[46]: - u[46] + z[46] <= 0
 mccormick1[47]: - u[47] + z[47] <= 0
 mccormick1[48]: - u[48] + z[48] <= 0
 mccormick1[49]: - u[49] + z[49] <= 0
 mccormick1[50]: - u[50] + z[50] <= 0
 mccormick1[51]: - u[51] + z[51] <= 0
 mccormick1[52]: - u[52] + z[52] <= 0
 mccormick1[53]: - u[53] + z[53] <= 0
 mccormick1[54]: - u[54] + z[54] <= 0
 mccormick1[55]: - u[55] + z[55] <= 0
 mccormick1[56]: - u[56] + z[56] <= 0
 mccormick1[57]: - u[57] + z[57] <= 0
 mccormick1[58]: - u[58] + z[58] <= 0
 mccormick1[59]: - u[59] + z[59] <= 0
 mccormick1[60]: - u[60] + z[60] <= 0
 mccormick1[61]: - u[61] + z[61] <= 0
 mccormick1[62]: - u[62] + z[62] <= 0
 mccormick1[63]: - u[63] + z[63] <= 0
 mccormick1[64]: - u[64] + z[64] <= 0
 mccormick1[65]: - u[65] + z[65] <= 0
 mccormick1[66]: - u[66] + z[66] <= 0
 mccormick1[67]: - u[67] + z[67] <= 0
 mccormick1[68]: - u[68] + z[68] <= 0
 mccormick1[69]: - u[69] + z[69] <= 0
 mccormick1[70]: - u[70] + z[70] <= 0
 mccormick1[71]: - u[71] + z[71] <= 0
 mccormick1[72]: - u[72] + z[72] <= 0
 mccormick1[73]: - u[73] + z[73] <= 0
 mccormick1[74]: - u[74] + z[74] <= 0
 mccormick1[75]: - u[75] + z[75] <= 0
 mccormick1[76]: - u[76] + z[76] <= 0
 mccormick1[77]: - u[77] + z[77] <= 0
 mccormick1[78]: - u[78] + z[78] <= 0
 mccormick1[79]: - u[79] + z[79] <= 0
 mccormick2[0]: - y[0] + z[0] <= 0
 mccormick2[1]: - y[1] + z[1] <= 0
 mccormick2[2]: - y[2] + z[2] <= 0
 mccormick2[3]: - y[3] + z[3] <= 0
 mccormick2[4]: - y[4] + z[4] <= 0
 mccormick2[5]: - y[5] + z[5] <= 0
 mccormick2[6]: - y[6] + z[6] <= 0
 mccormick2[7]: - y[7] + z[7] <= 0
 mccormick2[8]: - y[8] + z[8] <= 0
 mccormick2[9]: - y[9] + z[9] <= 0
 mccormick2[10]: - y[10] + z[10] <= 0
 mccormick2[11]: - y[11] + z[11] <= 0
 mccormick2[12]: - y[12] + z[12] <= 0
 mccormick2[13]: - y[13] + z[13] <= 0
 mccormick2[14]: - y[14] + z[14] <= 0
 mccormick2[15]: - y[15] + z[15] <= 0
 mccormick2[16]: - y[16] + z[16] <= 0
 mccormick2[17]: - y[17] + z[17] <= 0
 mccormick2[18]: - y[18] + z[18] <= 0
 mccormick2[19]: - y[19] + z[19] <= 0
 mccormick2[20]: - y[20] + z[20] <= 0
 mccormick2[21]: - y[21] + z[21] <= 0
 mccormick2[22]: - y[22] + z[22] <= 0
 mccormick2[23]: - y[23] + z[23] <= 0
 mccormick2[24]: - y[24] + z[24] <= 0
 mccormick2[25]: - y[25] + z[25] <= 0
 mccormick2[26]: - y[26] + z[26] <= 0
 mccormick2[27]: - y[27] + z[27] <= 0
 mccormick2[28]: - y[28] + z[28] <= 0
 mccormick2[29]: - y[29] + z[29] <= 0
 mccormick2[30]: - y[30] + z[30] <= 0
 mccormick2[31]: - y[31] + z[31] <= 0
 mccormick2[32]: - y[32] + z[32] <= 0
 mccormick2[33]: - y[33] + z[33] <= 0
 mccormick2[34]: - y[34] + z[34] <= 0
 mccormick2[35]: - y[35] + z[35] <= 0
 mccormick2[36]: - y[36] + z[36] <= 0
 mccormick2[37]: - y[37] + z[37] <= 0
 mccormick2[38]: - y[38] + z[38] <= 0
 mccormick2[39]: - y[39] + z[39] <= 0
 mccormick2[40]: - y[40] + z[40] <= 0
 mccormick2[41]: - y[41] + z[41] <= 0
 mccormick2[42]: - y[42] + z[42] <= 0
 mccormick2[43]: - y[43] + z[43] <= 0
 mccormick2[44]: - y[44] + z[44] <= 0
 mccormick2[45]: - y[45] + z[45] <= 0
 mccormick2[46]: - y[46] + z[46] <= 0
 mccormick2[47]: - y[47] + z[47] <= 0
 mccormick2[48]: - y[48] + z[48] <= 0
 mccormick2[49]: - y[49] + z[49] <= 0
 mccormick2[50]: - y[50] + z[50] <= 0
 mccormick2[51]: - y[51] + z[51] <= 0
 mccormick2[52]: - y[52] + z[52] <= 0
 mccormick2[53]: - y[53] + z[53] <= 0
 mccormick2[54]: - y[54] + z[54] <= 0
 mccormick2[55]: - y[55] + z[55] <= 0
 mccormick2[56]: - y[56] + z[56] <= 0
 mccormick2[57]: - y[57] + z[57] <= 0
 mccormick2[58]: - y[58] + z[58] <= 0
 mccormick2[59]: - y[59] + z[59] <= 0
 mccormick2[60]: - y[60] + z[60] <= 0
 mccormick2[61]: - y[61] + z[61] <= 0
 mccormick2[62]: - y[62] + z[62] <= 0
 mccormick2[63]: - y[63] + z[63] <= 0
 mccormick2[64]: - y[64] + z[64] <= 0
 mccormick2[65]: - y[65] + z[65] <= 0
 mccormick2[66]: - y[66] + z[66] <= 0
 mccormick2[67]: - y[67] + z[67] <= 0
 mccormick2[68]: - y[68] + z[68] <= 0
 mccormick2[69]: - y[69] + z[69] <= 0
 mccormick2[70]: - y[70] + z[70] <= 0
 mccormick2[71]: - y[71] + z[71] <= 0
 mccormick2[72]: - y[72] + z[72] <= 0
 mccormick2[73]: - y[73] + z[73] <= 0
 mccormick2[74]: - y[74] + z[74] <= 0
 mccormick2[75]: - y[75] + z[75] <= 0
 mccormick2[76]: - y[76] + z[76] <= 0
 mccormick2[77]: - y[77] + z[77] <= 0
 mccormick2[78]: - y[78] + z[78] <= 0
 mccormick2[79]: - y[79] + z[79] <= 0
 mccormick3[0]: y[0] + u[0] - z[0] <= 1
 mccormick3[1]: y[1] + u[1] - z[1] <= 1
 mccormick3[2]: y[2] + u[2] - z[2] <= 1
 mccormick3[3]: y[3] + u[3] - z[3] <= 1
 mccormick3[4]: y[4] + u[4] - z[4] <= 1
 mccormick3[5]: y[5] + u[5] - z[5] <= 1
 mccormick3[6]: y[6] + u[6] - z[6] <= 1
 mccormick3[7]: y[7] + u[7] - z[7] <= 1
 mccormick3[8]: y[8] + u[8] - z[8] <= 1
 mccormick3[9]: y[9] + u[9] - z[9] <= 1
 mccormick3[10]: y[10] + u[10] - z[10] <= 1
 mccormick3[11]: y[11] + u[11] - z[11] <= 1
 mccormick3[12]: y[12] + u[12] - z[12] <= 1
 mccormick3[13]: y[13] + u[13] - z[13] <= 1
 mccormick3[14]: y[14] + u[14] - z[14] <= 1
 mccormick3[15]: y[15] + u[15] - z[15] <= 1
 mccormick3[16]: y[16] + u[16] - z[16] <= 1
 mccormick3[17]: y[17] + u[17] - z[17] <= 1
 mccormick3[18]: y[18] + u[18] - z[18] <= 1
 mccormick3[19]: y[19] + u[19] - z[19] <= 1
 mccormick3[20]: y[20] + u[20] - z[20] <= 1
 mccormick3[21]: y[21] + u[21] - z[21] <= 1
 mccormick3[22]: y[22] + u[22] - z[22] <= 1
 mccormick3[23]: y[23] + u[23] - z[23] <= 1
 mccormick3[24]: y[24] + u[24] - z[24] <= 1
 mccormick3[25]: y[25] + u[25] - z[25] <= 1
 mccormick3[26]: y[26] + u[26] - z[26] <= 1
 mccormick3[27]: y[27] + u[27] - z[27] <= 1
 mccormick3[28]: y[28] + u[28] - z[28] <= 1
 mccormick3[29]: y[29] + u[29] - z[29] <= 1
 mccormick3[30]: y[30] + u[30] - z[30] <= 1
 mccormick3[31]: y[31] + u[31] - z[31] <= 1
 mccormick3[32]: y[32] + u[32] - z[32] <= 1
 mccormick3[33]: y[33] + u[33] - z[33] <= 1
 mccormick3[34]: y[34] + u[34] - z[34] <= 1
 mccormick3[35]: y[35] + u[35] - z[35] <= 1
 mccormick3[36]: y[36] + u[36] - z[36] <= 1
 mccormick3[37]: y[37] + u[37] - z[37] <= 1
 mccormick3[38]: y[38] + u[38] - z[38] <= 1
 mccormick3[39]: y[39] + u[39] - z[39] <= 1
 mccormick3[40]: y[40] + u[40] - z[40] <= 1
 mccormick3[41]: y[41] + u[41] - z[41] <= 1
 mccormick3[42]: y[42] + u[42] - z[42] <= 1
 mccormick3[43]: y[43] + u[43] - z[43] <= 1
 mccormick3[44]: y[44] + u[44] - z[44] <= 1
 mccormick3[45]: y[45] + u[45] - z[45] <= 1
 mccormick3[46]: y[46] + u[46] - z[46] <= 1
 mccormick3[47]: y[47] + u[47] - z[47] <= 1
 mccormick3[48]: y[48] + u[48] - z[48] <= 1
 mccormick3[49]: y[49] + u[49] - z[49] <= 1
 mccormick3[50]: y[50] + u[50] - z[50] <= 1
 mccormick3[51]: y[51] + u[51] - z[51] <= 1
 mccormick3[52]: y[52] + u[52] - z[52] <= 1
 mccormick3[53]: y[53] + u[53] - z[53] <= 1
 mccormick3[54]: y[54] + u[54] - z[54] <= 1
 mccormick3[55]: y[55] + u[55] - z[55] <= 1
 mccormick3[56]: y[56] + u[56] - z[56] <= 1
 mccormick3[57]: y[57] + u[57] - z[57] <= 1
 mccormick3[58]: y[58] + u[58] - z[58] <= 1
 mccormick3[59]: y[59] + u[59] - z[59] <= 1
 mccormick3[60]: y[60] + u[60] - z[60] <= 1
 mccormick3[61]: y[61] + u[61] - z[61] <= 1
 mccormick3[62]: y[62] + u[62] - z[62] <= 1
 mccormick3[63]: y[63] + u[63] - z[63] <= 1
 mccormick3[64]: y[64] + u[64] - z[64] <= 1
 mccormick3[65]: y[65] + u[65] - z[65] <= 1
 mccormick3[66]: y[66] + u[66] - z[66] <= 1
 mccormick3[67]: y[67] + u[67] - z[67] <= 1
 mccormick3[68]: y[68] + u[68] - z[68] <= 1
 mccormick3[69]: y[69] + u[69] - z[69] <= 1
 mccormick3[70]: y[70] + u[70] - z[70] <= 1
 mccormick3[71]: y[71] + u[71] - z[71] <= 1
 mccormick3[72]: y[72] + u[72] - z[72] <= 1
 mccormick3[73]: y[73] + u[73] - z[73] <= 1
 mccormick3[74]: y[74] + u[74] - z[74] <= 1
 mccormick3[75]: y[75] + u[75] - z[75] <= 1
 mccormick3[76]: y[76] + u[76] - z[76] <= 1
 mccormick3[77]: y[77] + u[77] - z[77] <= 1
 mccormick3[78]: y[78] + u[78] - z[78] <= 1
 mccormick3[79]: y[79] + u[79] - z[79] <= 1
Bounds
Binaries
 y[0] y[1] y[2] y[3] y[4] y[5] y[6] y[7] y[8] y[9] y[10] y[11] y[12] y[13]
 y[14] y[15] y[16] y[17] y[18] y[19] y[20] y[21] y[22] y[23] y[24] y[25]
 y[26] y[27] y[28] y[29] y[30] y[31] y[32] y[33] y[34] y[35] y[36] y[37]
 y[38] y[39] y[40] y[41] y[42] y[43] y[44] y[45] y[46] y[47] y[48] y[49]
 y[50] y[51] y[52] y[53] y[54] y[55] y[56] y[57] y[58] y[59] y[60] y[61]
 y[62] y[63] y[64] y[65] y[66] y[67] y[68] y[69] y[70] y[71] y[72] y[73]
 y[74] y[75] y[76] y[77] y[78] y[79] u[0] u[1] u[2] u[3] u[4] u[5] u[6]
 u[7] u[8] u[9] u[10] u[11] u[12] u[13] u[14] u[15] u[16] u[17] u[18] u[19]
 u[20] u[21] u[22] u[23] u[24] u[25] u[26] u[27] u[28] u[29] u[30] u[31]
 u[32] u[33] u[34] u[35] u[36] u[37] u[38] u[39] u[40] u[41] u[42] u[43]
 u[44] u[45] u[46] u[47] u[48] u[49] u[50] u[51] u[52] u[53] u[54] u[55]
 u[56] u[57] u[58] u[59] u[60] u[61] u[62] u[63] u[64] u[65] u[66] u[67]
 u[68] u[69] u[70] u[71] u[72] u[73] u[74] u[75] u[76] u[77] u[78] u[79]
 z[0] z[1] z[2] z[3] z[4] z[5] z[6] z[7] z[8] z[9] z[10] z[11] z[12] z[13]
 z[14] z[15] z[16] z[17] z[18] z[19] z[20] z[21] z[22] z[23] z[24] z[25]
 z[26] z[27] z[28] z[29] z[30] z[31] z[32] z[33] z[34] z[35] z[36] z[37]
 z[38] z[39] z[40] z[41] z[42] z[43] z[44] z[45] z[46] z[47] z[48] z[49]
 z[50] z[51] z[52] z[53] z[54] z[55] z[56] z[57] z[58] z[59] z[60] z[61]
 z[62] z[63] z[64] z[65] z[66] z[67] z[68] z[69] z[70] z[71] z[72] z[73]
 z[74] z[75] z[76] z[77] z[78] z[79]
End
